
List of user-set options:

                                    Name   Value                used
                           compl_inf_tol = 1                     yes
                         constr_viol_tol = 1                     yes
                            dual_inf_tol = 1000                  yes
                           linear_solver = ma97                  yes
                              ma86_small = 1e-30                  no
                                  ma86_u = 0.0001                 no
                              ma97_order = best                  yes
                              ma97_small = 1e-30                 yes
                            ma97_switch1 = at_start              yes
                            ma97_switch2 = od_hd_reuse           yes
                                  ma97_u = 1e-06                 yes
                               ma97_umax = 0.5                   yes
                                max_iter = 1000                  yes
                    max_refinement_steps = 20                    yes
                    min_refinement_steps = 5                     yes
                                 mu_init = 1e-06                 yes
           mu_superlinear_decrease_power = 1.25                  yes
                   nlp_scaling_min_value = 1e-08                 yes
                        option_file_name = Preset_Case_314_pf.opt  yes
                             output_file = ./tmp/Preset_Case_314_pf.output  yes
                      print_user_options = yes                   yes
        required_infeasibility_reduction = 1                      no
                                     tol = 1e-08                 yes
                   warm_start_bound_frac = 1e-20                 yes
                   warm_start_bound_push = 1e-20                 yes
                   warm_start_init_point = yes                   yes
              warm_start_mult_bound_push = 1e-20                 yes
                warm_start_mult_init_max = 1e+40                 yes
             warm_start_slack_bound_frac = 1e-20                 yes
             warm_start_slack_bound_push = 1e-20                 yes

******************************************************************************
This program contains Ipopt, a library for large-scale nonlinear optimization.
 Ipopt is released as open source code under the Eclipse Public License (EPL).
         For more information visit http://projects.coin-or.org/Ipopt
******************************************************************************

This is Ipopt version 3.12.10, running with linear solver ma97.

Number of nonzeros in equality constraint Jacobian...:   123442
Number of nonzeros in inequality constraint Jacobian.:      213
Number of nonzeros in Lagrangian Hessian.............:    49069

Total number of variables............................:    31591
                     variables with only lower bounds:    12912
                variables with lower and upper bounds:    15130
                     variables with only upper bounds:        0
Total number of equality constraints.................:    31483
Total number of inequality constraints...............:       25
        inequality constraints with only lower bounds:        4
   inequality constraints with lower and upper bounds:        0
        inequality constraints with only upper bounds:       21

iter    objective    inf_pr   inf_du lg(mu)  ||d||  lg(rg) alpha_du alpha_pr  ls
   0 -5.3589151e+00 4.05e-03 1.02e+00  -6.0 0.00e+00    -  0.00e+00 0.00e+00   0
   1 -5.3602682e+00 8.98e+00 4.89e+01  -6.0 4.34e+05    -  7.47e-05 1.06e-03h  1
   2 -5.3602255e+00 8.98e+00 4.89e+01  -6.0 1.02e+03    -  1.15e-04 3.62e-05h  1
   3 -5.3589623e+00 8.98e+00 4.88e+01  -6.0 1.12e+04    -  1.14e-04 5.46e-04h  4
   4 -5.3585126e+00 8.98e+00 9.80e+01  -6.0 1.05e+03    -  1.66e-01 3.82e-04h  5
   5 -5.3583608e+00 8.98e+00 1.14e+02  -6.0 7.74e+03    -  1.06e-03 7.65e-05h  7
   6 -5.3582541e+00 8.97e+00 1.17e+02  -6.0 2.75e+03    -  5.74e-04 7.30e-05h  9
   7 -5.3582289e+00 8.97e+00 1.18e+02  -6.0 1.03e+03    -  1.59e-03 2.14e-05h 15
   8 -5.3569399e+00 8.96e+00 1.17e+02  -6.0 1.03e+03    -  7.93e-04 1.30e-03H  1
   9 -4.9975475e+00 5.72e+00 7.40e+05  -6.0 1.03e+03    -  7.29e-05 3.64e-01H  1
iter    objective    inf_pr   inf_du lg(mu)  ||d||  lg(rg) alpha_du alpha_pr  ls
  10 -4.9975457e+00 5.72e+00 7.40e+05  -6.0 1.19e+02   2.0 2.53e-06 1.88e-06h  2
  11r-4.9975457e+00 5.72e+00 9.99e+02   0.8 0.00e+00   1.5 0.00e+00 3.33e-07R  5
  12r-4.9486016e+00 5.72e+00 9.99e+02   0.8 5.45e+05    -  3.07e-09 9.90e-09f  1
  13r-4.9529473e+00 5.72e+00 9.99e+02   0.8 4.53e+04    -  1.01e-06 3.35e-08f  1
  14r-4.9752859e+00 5.71e+00 9.99e+02   0.8 3.02e+04    -  5.45e-08 6.27e-07f  1
  15 -4.9752887e+00 5.71e+00 1.01e+02  -6.0 2.44e+02    -  3.32e-06 5.13e-05h  1
  16 -4.9752249e+00 5.71e+00 1.01e+02  -6.0 2.81e+02    -  8.39e-04 3.84e-04h  1
  17 -4.9750776e+00 5.71e+00 1.01e+02  -6.0 2.84e+02    -  4.86e-04 8.66e-04h  1
  18 -4.9737180e+00 5.66e+00 2.21e+02  -6.0 2.84e+02    -  5.29e-03 7.76e-03h  1
  19 -4.9685194e+00 5.61e+00 7.13e+02  -6.0 2.53e+02    -  3.47e-03 9.86e-03h  1
iter    objective    inf_pr   inf_du lg(mu)  ||d||  lg(rg) alpha_du alpha_pr  ls
  20 -4.9646127e+00 5.57e+00 7.18e+02  -6.0 2.49e+02    -  6.52e-03 6.65e-03h  1
  21 -4.9563320e+00 5.49e+00 1.28e+03  -6.0 2.47e+02    -  6.56e-03 1.44e-02h  1
  22 -4.9422596e+00 5.35e+00 1.41e+03  -6.0 2.41e+02    -  2.36e-02 2.59e-02h  1
  23 -4.9218625e+00 5.12e+00 1.98e+03  -6.0 2.26e+02    -  3.29e-02 4.33e-02h  1
  24 -4.8900010e+00 4.75e+00 8.31e+03  -6.0 2.12e+02    -  1.56e-01 7.17e-02h  1
  25 -4.8196705e+00 3.96e+00 1.74e+04  -6.0 1.98e+02    -  8.62e-02 1.69e-01h  1
  26 -4.7734202e+00 3.27e+00 1.67e+04  -6.0 1.68e+02    -  3.90e-01 1.75e-01h  1
  27 -4.7514141e+00 1.25e+00 3.68e+04  -6.0 1.42e+02    -  5.35e-01 7.01e-01h  1
  28 -4.8718275e+00 9.96e-01 2.97e+04  -6.0 2.77e+01    -  3.89e-01 2.02e-01h  1
  29 -5.3882296e+00 2.49e+00 1.80e+04  -6.0 5.18e+01    -  1.17e-01 5.12e-01h  1
iter    objective    inf_pr   inf_du lg(mu)  ||d||  lg(rg) alpha_du alpha_pr  ls
  30 -5.3882316e+00 2.49e+00 1.80e+04  -6.0 3.43e+01    -  6.44e-01 7.36e-05h  1
  31 -5.4140935e+00 2.22e+00 1.60e+04  -6.0 5.78e+01    -  5.07e-01 1.13e-01h  1
  32 -5.5535992e+00 2.19e+00 1.36e+04  -6.0 2.21e+02    -  1.85e-01 2.07e-01h  1
  33 -5.5616006e+00 1.86e+00 1.15e+04  -6.0 4.89e+01    -  4.76e-01 1.53e-01h  1
  34 -5.5938028e+00 1.06e+00 6.26e+03  -6.0 6.66e+01    -  4.45e-01 4.69e-01h  1
  35 -5.6345824e+00 4.80e-01 2.25e+03  -6.0 8.06e+01    -  6.15e-01 6.56e-01h  1
  36 -5.6875463e+00 1.57e+00 4.66e+07  -6.0 2.47e+02    -  3.49e-01 4.38e-01h  1
  37 -5.6935564e+00 1.41e+00 4.15e+07  -6.0 3.48e+02    -  9.79e-02 1.13e-01h  1
  38 -5.6943733e+00 1.11e+00 3.29e+07  -6.0 1.23e+02    -  4.66e-01 2.21e-01h  1
  39 -5.7103373e+00 7.44e-01 2.07e+07  -6.0 2.34e+02    -  4.86e-01 3.89e-01h  1
iter    objective    inf_pr   inf_du lg(mu)  ||d||  lg(rg) alpha_du alpha_pr  ls
  40 -5.7111375e+00 7.33e-01 2.04e+07  -6.0 3.83e+02    -  2.52e-01 1.43e-02h  1
  41 -5.7124207e+00 7.27e-01 2.02e+07  -6.0 1.23e+03    -  1.48e-01 9.10e-03h  1
  42 -5.7350892e+00 8.16e-01 6.30e+06  -6.0 3.29e+02    -  2.46e-01 7.65e-01h  1
  43 -5.7393837e+00 7.24e-01 4.38e+06  -6.0 3.77e+02    -  3.12e-01 3.41e-01h  1
  44 -5.7410160e+00 6.25e-01 3.83e+06  -6.0 4.87e+02    -  7.36e-01 1.26e-01h  1
  45 -5.7410145e+00 6.25e-01 3.83e+06  -6.0 1.52e+00   1.0 3.01e-05 3.12e-04h  1
  46 -5.7410117e+00 6.25e-01 3.83e+06  -6.0 8.75e-01   0.6 1.51e-03 2.81e-04h  1
  47 -5.7408714e+00 6.18e-01 3.79e+06  -6.0 8.24e-01   0.1 7.86e-04 1.16e-02h  1
  48 -5.7404959e+00 6.03e-01 3.69e+06  -6.0 7.31e-01  -0.4 6.94e-03 2.44e-02h  1
  49 -5.7360654e+00 4.33e-01 2.65e+06  -6.0 6.77e-01  -0.9 2.78e-02 2.82e-01h  1
iter    objective    inf_pr   inf_du lg(mu)  ||d||  lg(rg) alpha_du alpha_pr  ls
  50 -5.7301135e+00 2.26e-01 1.38e+06  -6.0 4.41e-01  -1.3 2.41e-01 4.78e-01h  1
  51 -5.7272298e+00 1.69e-04 1.07e+04  -6.0 3.69e-01  -1.8 3.23e-01 1.00e+00h  1
  52 -5.7340951e+00 1.64e-03 5.20e+03  -6.0 4.53e-01  -2.3 5.05e-01 6.50e-01h  1
  53 -5.7344413e+00 1.59e-03 4.99e+03  -6.0 8.55e-01  -2.8 3.97e-02 3.39e-02f  1
  54 -5.7345186e+00 1.57e-03 2.34e+03  -6.0 1.39e+00  -3.2 5.53e-01 1.50e-02f  1
  55 -5.7347848e+00 1.42e-03 7.11e+02  -6.0 7.32e-01  -3.7 7.55e-01 9.95e-02f  1
  56 -5.7338421e+00 5.48e-03 4.77e+02  -6.0 2.65e+00  -4.2 2.06e-01 6.68e-01H  1
  57 -5.7344643e+00 4.21e-03 2.71e+02  -6.0 1.77e+00  -4.7 4.17e-01 5.39e-01f  1
  58 -5.7355937e+00 1.15e-02 1.74e+01  -6.0 4.79e+00  -5.2 1.00e+00 9.76e-01f  1
  59 -5.7504510e+00 1.31e+01 7.35e+01  -6.0 1.10e+04    -  1.00e-02 7.86e-02h  1
iter    objective    inf_pr   inf_du lg(mu)  ||d||  lg(rg) alpha_du alpha_pr  ls
  60 -5.7585996e+00 9.73e+00 1.22e+04  -6.0 1.87e+03    -  5.29e-02 3.57e-01h  1
  61 -5.7606489e+00 2.52e-02 1.61e+03  -6.0 2.49e+01  -5.6 2.40e-01 1.00e+00h  1
  62 -5.7662864e+00 1.49e-01 4.08e+03  -6.0 5.48e+03    -  2.54e-02 1.00e-02h  1
  63 -5.7863892e+00 8.65e+00 4.49e+04  -6.0 1.32e+03    -  2.54e-01 8.77e-01h  1
  64 -5.7868237e+00 8.01e+00 1.64e+04  -6.0 3.47e+02    -  2.67e-01 7.54e-02h  1
  65 -5.7885653e+00 6.07e+00 9.81e+04  -6.0 4.27e+02    -  5.08e-01 2.52e-01h  1
  66 -5.7937274e+00 2.76e+00 8.58e+04  -6.0 8.22e+02    -  1.94e-02 5.88e-01h  1
  67r-5.7937274e+00 2.76e+00 1.00e+03   0.2 0.00e+00  -6.1 0.00e+00 4.39e-07R  2
  68r-5.8170864e+00 2.76e+00 1.00e+03   0.2 2.39e+04    -  4.74e-06 1.07e-06f  1
  69 -5.8143029e+00 2.48e+00 8.31e+04  -6.0 2.53e+01    -  1.19e-06 9.91e-02h  1
iter    objective    inf_pr   inf_du lg(mu)  ||d||  lg(rg) alpha_du alpha_pr  ls
  70 -5.8059209e+00 1.66e+00 5.55e+04  -6.0 2.24e+01    -  1.40e-01 3.32e-01h  1
  71 -5.8016013e+00 1.23e+00 4.10e+04  -6.0 1.37e+01    -  6.10e-01 2.61e-01h  1
  72 -5.7894670e+00 6.76e-04 1.99e+01  -6.0 7.95e+00    -  8.30e-01 1.00e+00h  1
  73 -5.7896842e+00 4.05e-04 2.24e+01  -6.0 2.04e+00    -  6.95e-01 4.01e-01h  1
  74 -5.7908576e+00 1.50e-03 1.47e+01  -6.0 6.12e+00    -  9.43e-01 1.00e+00f  1
  75 -5.7989473e+00 1.20e-01 3.99e+01  -6.0 8.11e+01    -  2.07e-01 6.75e-01h  1
  76 -5.7983017e+00 4.96e-02 1.68e+01  -6.0 4.03e+01    -  8.66e-01 1.00e+00h  1
  77 -5.8070723e+00 2.98e-01 8.33e+01  -6.0 3.12e+02    -  6.63e-01 2.98e-01h  1
  78 -5.8108025e+00 1.39e+00 1.11e+02  -6.0 5.78e+02    -  8.53e-01 3.44e-01h  1
  79 -5.8159091e+00 5.02e-01 2.84e+03  -6.0 5.31e+02    -  7.20e-01 1.00e+00h  1
iter    objective    inf_pr   inf_du lg(mu)  ||d||  lg(rg) alpha_du alpha_pr  ls
  80 -5.8203614e+00 2.10e-01 3.81e+03  -6.0 7.01e+01  -6.6 3.97e-01 1.00e+00h  1
  81 -5.8311976e+00 1.20e+00 1.58e+01  -6.0 2.02e+02  -7.1 9.86e-01 1.00e+00h  1
  82 -5.8330321e+00 1.23e+00 1.70e+04  -6.0 4.28e+03    -  4.03e-02 8.35e-03h  1
  83 -5.8461754e+00 1.30e+00 2.87e+03  -6.0 5.62e+02    -  9.80e-01 1.00e+00h  1
  84 -5.8503479e+00 1.05e+00 5.76e+04  -6.0 2.12e+02    -  4.36e-01 2.65e-01h  1
  85 -5.8672762e+00 1.41e+00 4.36e+04  -6.0 2.24e+02    -  9.13e-01 1.00e+00h  1
  86 -5.8697056e+00 1.32e+00 2.74e+05  -6.0 3.80e+02    -  2.36e-01 8.37e-02h  1
  87r-5.8697056e+00 1.32e+00 1.00e+03   0.1 0.00e+00    -  0.00e+00 3.90e-07R  2
  88r-5.8904151e+00 1.31e+00 1.00e+03   0.1 1.00e+04    -  5.01e-06 1.45e-06f  1
  89 -5.8898956e+00 1.28e+00 4.35e+05  -6.0 8.92e+00    -  2.93e-01 2.41e-02h  1
iter    objective    inf_pr   inf_du lg(mu)  ||d||  lg(rg) alpha_du alpha_pr  ls
  90 -5.8786868e+00 7.47e-01 7.99e+06  -6.0 8.42e+00    -  2.41e-02 4.18e-01h  1
  91 -5.8778960e+00 5.69e-01 6.08e+06  -6.0 6.13e+00    -  7.12e-01 2.38e-01h  1
  92 -5.8679899e+00 6.68e-04 1.64e+01  -6.0 4.34e+00    -  8.26e-01 1.00e+00h  1
  93 -5.8684256e+00 4.48e-04 2.78e+01  -6.0 2.97e+00    -  9.00e-01 3.35e-01h  1
  94 -5.8703714e+00 7.29e-03 1.32e+01  -6.0 1.52e+01    -  9.51e-01 1.00e+00f  1
  95 -5.8765115e+00 1.14e-01 4.86e+03  -6.0 1.39e+02    -  8.39e-01 1.00e+00H  1
  96 -5.8814293e+00 3.14e-01 1.36e+03  -6.0 2.06e+02    -  9.24e-01 1.00e+00H  1
  97 -5.8792177e+00 1.51e-01 4.58e+02  -6.0 1.17e+02    -  9.14e-01 6.64e-01h  1
  98 -5.8774149e+00 1.49e-01 4.45e+03  -6.0 8.38e+01    -  9.79e-01 5.00e-01h  2
  99 -5.8819269e+00 8.13e-02 2.56e+00  -6.0 4.43e+01    -  1.00e+00 1.00e+00h  1
iter    objective    inf_pr   inf_du lg(mu)  ||d||  lg(rg) alpha_du alpha_pr  ls
 100 -5.8823589e+00 1.13e-01 4.65e+00  -6.0 5.23e+01    -  1.00e+00 1.00e+00h  1
 101 -5.8822017e+00 3.15e-02 1.40e+03  -6.0 2.77e+01    -  7.20e-01 1.00e+00h  1
 102 -5.8805260e+00 2.58e-03 3.52e+00  -6.0 8.26e+00    -  1.00e+00 1.00e+00h  1
 103 -5.8806886e+00 6.84e-04 2.02e-02  -6.0 4.07e+00    -  1.00e+00 1.00e+00h  1
 104 -5.8806896e+00 4.58e-08 2.14e-06  -6.0 3.26e-02    -  1.00e+00 1.00e+00h  1
 105 -5.8808670e+00 2.50e+00 4.74e+01  -7.5 5.67e+02    -  8.09e-01 7.09e-01h  1
 106 -5.8808607e+00 7.93e-01 1.61e+01  -7.5 1.86e+02    -  1.00e+00 8.41e-01h  1
 107 -5.8808520e+00 1.39e-02 3.97e-01  -7.5 2.88e+01    -  1.00e+00 1.00e+00h  1
 108 -5.8808518e+00 1.82e-07 5.91e-06  -7.5 1.25e-01    -  1.00e+00 1.00e+00h  1
 109 -5.8808518e+00 3.20e-10 1.47e-11  -7.5 4.37e-05    -  1.00e+00 1.00e+00h  1
iter    objective    inf_pr   inf_du lg(mu)  ||d||  lg(rg) alpha_du alpha_pr  ls
 110 -5.8808534e+00 4.23e-03 9.57e-01  -9.0 1.97e+01    -  9.30e-01 8.26e-01h  1
 111 -5.8808537e+00 1.97e-04 3.62e-01  -9.0 3.51e+00    -  9.21e-01 1.00e+00h  1
 112 -5.8808537e+00 2.85e-10 3.55e-09  -9.0 1.40e-03    -  1.00e+00 1.00e+00h  1

Number of Iterations....: 112

                                   (scaled)                 (unscaled)
Objective...............:  -4.5944169403521506e+00   -5.8808536836507530e+00
Dual infeasibility......:   3.5539152152623519e-09    4.5490114755358102e-09
Constraint violation....:   2.8503757589903173e-10    2.8503757589903173e-10
Complementarity.........:   1.2079932239424890e-09    1.5462313266463859e-09
Overall NLP error.......:   3.5539152152623519e-09    4.5490114755358102e-09


Number of objective function evaluations             = 168
Number of objective gradient evaluations             = 111
Number of equality constraint evaluations            = 168
Number of inequality constraint evaluations          = 168
Number of equality constraint Jacobian evaluations   = 116
Number of inequality constraint Jacobian evaluations = 116
Number of Lagrangian Hessian evaluations             = 112
Total CPU secs in IPOPT (w/o function evaluations)   =    220.834
Total CPU secs in NLP function evaluations           =      4.431

EXIT: Optimal Solution Found.
